12067.0
1 0 0 0 0 1 0 0 1 0 0 0 0 0 1 0 0 1 0 0 1 0 0 0 1 0 0 0 0 0 
1 19 21 38 40 46 48 57 58 60 63 64 65 67 81 87 93 103 107 113 114 115 125 128 130 131 140 145 146 




5 18 22 24 28 30 31 33 50 53 61 68 72 89 95 98 105 120 122 126 129 133 137 147 149 


11 12 25 43 49 75 100 109 121 124 134 141 144 





3 8 15 16 20 39 41 45 51 52 59 78 96 97 108 110 111 135 143 


6 9 14 17 23 26 56 73 83 84 85 86 90 92 94 101 102 104 106 112 136 139 148 


0 2 4 13 32 34 35 47 54 55 62 70 71 77 80 82 88 99 123 138 142 



7 10 27 29 36 37 42 44 66 69 74 76 79 91 116 117 118 119 127 132 





